50
14741

460 551
509 6
750 248
501 288
713 616
920 433
525 195
203 501
809 544
743 906
81 575
905 301
838 477
568 389
861 219
277 520
480 264
592 254
852 5
818 116
224 380
384 282
469 680
424 493
359 312
538 392
457 197
442 31
14 470
732 356
462 747
607 535
752 272
424 840
143 912
708 966
888 846
643 75
979 602
18 905
16 858
678 197
21 616
996 508
427 449
499 730
951 390
626 19
605 135
135 416
